8083
50, 44, 39, 40, 37, 38, 48, 24, 5, 15, 6, 4, 25, 51, 11, 52, 14, 13, 47, 26, 27, 28, 12, 33, 43, 10, 9, 8, 41, 19, 45, 32, 22, 1, 49, 36, 35, 34, 46, 16, 29, 30, 2, 7, 42, 21, 17, 3, 18, 31, 23, 20
